
  32    1
  10

   0   0   9 2 3 4 6 8 9 10 20 31 
   5   7   6 16 15 13 12 11 5 
   2   8   8 30 29 24 19 18 15 13 12 
   1   4   5 30 25 17 14 7 
   1  10   8 28 27 26 25 24 22 19 18 
   2  10   6 30 28 25 24 23 16 
   6   6   6 29 27 24 23 22 18 
   9   9   6 26 25 24 22 21 19 
   4  10   5 28 24 23 22 21 
   7   3   4 27 26 25 22 
   1  10   3 29 22 18 
   4   7   3 27 26 23 
  10  10   3 25 22 21 
   8   5   3 29 23 21 
   3   8   2 28 25 
   7  10   2 22 21 
   1   6   2 26 24 
   7   8   1 21 
   7   7   1 23 
   7   8   1 24 
   7   6   1 32
   4  10   1 32
   6  10   1 32
   9  10   1 32
   4   6   1 32
   5  10   1 32
   8   9   1 32
   7   8   1 32
  10   8   1 32
   1  10   1 32
   1   7   1 32
   0   0   0 
